job_count = 30 ;
duration = [|28, 10, 7|11, 7, 9|28, 8, 9|11, 12, 8|6, 4, 9|14, 11, 1|11, 16, 5|19, 6, 4|17, 8, 1|19, 6, 1|24, 2, 6|6, 2, 3|25, 13, 4|23, 17, 2|5, 13, 1|27, 9, 8|10, 4, 8|20, 8, 6|8, 16, 8|15, 2, 2|14, 16, 7|18, 11, 7|24, 13, 9|27, 16, 3|26, 11, 6|29, 18, 8|24, 18, 8|21, 4, 1|6, 8, 9|9, 3, 1|] ;
machine_count = 3 ;
cost = [|12, 27, 49|17, 34, 48|13, 26, 33|12, 37, 38|13, 28, 47|11, 38, 43|18, 26, 48|11, 26, 34|14, 34, 39|12, 32, 49|17, 29, 58|19, 30, 48|14, 30, 53|19, 20, 31|15, 33, 48|10, 27, 49|11, 26, 49|19, 35, 43|18, 30, 34|15, 39, 37|14, 29, 52|10, 34, 50|10, 21, 31|19, 33, 45|12, 28, 47|12, 26, 41|17, 24, 31|11, 37, 31|19, 20, 50|15, 37, 50|] ;
deadline = [67, 67, 67, 67, 67, 67, 67, 67, 67, 67, 67, 67, 67, 67, 67, 67, 67, 67, 67, 67, 67, 67, 67, 67, 67, 67, 67, 67, 67, 67] ;
release = [0, 0, 0, 0, 0, 0, 0, 0, 0, 0, 0, 0, 0, 0, 0, 0, 0, 0, 0, 0, 0, 0, 0, 0, 0, 0, 0, 0, 0, 0] ;
resource = [|6, 6, 6|4, 4, 4|4, 4, 4|9, 9, 9|3, 3, 3|2, 2, 2|2, 2, 2|5, 5, 5|7, 7, 7|3, 3, 3|6, 6, 6|5, 5, 5|1, 1, 1|1, 1, 1|9, 9, 9|5, 5, 5|8, 8, 8|3, 3, 3|7, 7, 7|1, 1, 1|5, 5, 5|4, 4, 4|9, 9, 9|4, 4, 4|1, 1, 1|3, 3, 3|9, 9, 9|2, 2, 2|6, 6, 6|6, 6, 6|] ;
capacities = [10, 10, 10] ;
